H2+                                     
   1.00000000000000     
    10.0000000000000000    0.0000000000000000    0.0000000000000000
     0.0000000000000000   10.0000000000000000    0.0000000000000000
     0.0000000000000000    0.0000000000000000   10.0000000000000000
  H             
     2
Selective dynamics
Direct
  0.6000000000000014  0.6000000000000014  0.6000000000000014   F   F   F
  0.6000000000000014  0.6000000000000014  0.7125817311938258   F   F   T
 
  0.00000000E+00  0.00000000E+00  0.00000000E+00
  0.00000000E+00  0.00000000E+00  0.00000000E+00
